c User generated cnf file
p cnf 11 45
5 2 -5 0 
10 7 -9 0 
9 -4 11 0 
10 -3 2 0 
1 -11 10 0 
-2 3 7 0 
-4 10 7 0 
4 4 -3 0 
6 10 -4 0 
6 6 -2 0 
11 4 -8 0 
8 -4 4 0 
6 4 -3 0 
-9 3 7 0 
-2 3 9 0 
2 -3 8 0 
1 8 -1 0 
1 6 -8 0 
-3 4 8 0 
6 -1 3 0 
-7 6 5 0 
-10 1 6 0 
5 -8 4 0 
1 -4 8 0 
-6 4 9 0 
8 -7 3 0 
2 -4 11 0 
-11 6 4 0 
-5 1 11 0 
-7 6 1 0 
-10 4 9 0 
2 -7 6 0 
2 -10 5 0 
2 7 -11 0 
3 5 -1 0 
8 -8 6 0 
11 7 -5 0 
-9 5 10 0 
11 -1 1 0 
3 -5 5 0 
-7 6 3 0 
8 8 -10 0 
6 -5 6 0 
9 -5 5 0 
9 9 -5 0 
